120
150
53
79
51
79
33
43
76
33
57
93
27
23
43
22
35
64
86
26
60
70
51
79
70
70
79
21
72
36
21
44
45
61
72
22
28
28
76
61
98
34
53
43
48
80
71
27
52
88
61
90
39
28
87
35
43
35
34
26
36
53
61
47
48
26
59
59
27
33
33
93
57
68
34
94
55
83
67
27
45
77
98
53
28
69
49
100
58
92
89
64
93
92
64
86
75
93
92
100
43
76
92
76
81
70
76
70
80
79
91
80
70
79
90
100
43
82
99
53
97
91
